(set-option :produce-interpolants true)
; 
(set-info :status unknown)
(declare-sort ElementSort 0)
 (declare-sort ArraySort 0)
 (declare-fun i1 () Int)
(declare-fun i2 () Int)
(declare-fun i3 () Int)
(declare-fun i4 () Int)
(declare-fun i5 () Int)
(declare-fun i6 () Int)
(declare-fun i7 () Int)
(declare-fun i8 () Int)
(declare-fun e1 () ElementSort)
(declare-fun rd (ArraySort Int) ElementSort)
(declare-fun a () ArraySort)
(declare-fun fresh_array_0 () ArraySort)
(declare-fun fresh_array_1 () ArraySort)
(declare-fun e2 () ElementSort)
(declare-fun fresh_array_2 () ArraySort)
(declare-fun fresh_array_3 () ArraySort)
(declare-fun e3 () ElementSort)
(declare-fun fresh_array_4 () ArraySort)
(declare-fun b () ArraySort)
(declare-fun e4 () ElementSort)
(declare-fun fresh_array_5 () ArraySort)
(declare-fun e5 () ElementSort)
(declare-fun fresh_array_6 () ArraySort)
(declare-fun e6 () ElementSort)
(declare-fun fresh_array_7 () ArraySort)
(declare-fun e7 () ElementSort)
(declare-fun fresh_index_8 () Int)
(declare-fun fresh_index_9 () Int)
(declare-fun fresh_index_10 () Int)
(declare-fun fresh_index_11 () Int)
(declare-fun j () Int)
(declare-fun p1 (Int) Bool)
(declare-fun p2 (Int) Bool)
(declare-fun p3 (Int) Bool)
(declare-fun p4 (Int) Bool)
(declare-fun p5 (Int) Bool)
(declare-fun p6 (Int) Bool)
(declare-fun p7 (Int) Bool)
(declare-fun p8 (Int) Bool)
(assert (! (and
(= true (p1 i1))
(= true (p2 i2))
(= true (p3 i3))
(= true (p4 i4))
(= true (p5 i5))
(= true (p6 i6))
(= true (p7 i7))
(= true (p8 i8))
(= (rd a i1) e1)
(=> (distinct i1 i1) (= (rd a i1) (rd fresh_array_0 i1)))
(=> (distinct i2 i1) (= (rd a i2) (rd fresh_array_0 i2)))
(=> (distinct i3 i1) (= (rd a i3) (rd fresh_array_0 i3)))
(=> (distinct i4 i1) (= (rd a i4) (rd fresh_array_0 i4)))
(=> (distinct i5 i1) (= (rd a i5) (rd fresh_array_0 i5)))
(=> (distinct i6 i1) (= (rd a i6) (rd fresh_array_0 i6)))
(=> (distinct i7 i1) (= (rd a i7) (rd fresh_array_0 i7)))
(= (rd a i1) e1)
(=> (distinct i1 i1) (= (rd a i1) (rd fresh_array_1 i1)))
(=> (distinct i2 i1) (= (rd a i2) (rd fresh_array_1 i2)))
(=> (distinct i3 i1) (= (rd a i3) (rd fresh_array_1 i3)))
(=> (distinct i4 i1) (= (rd a i4) (rd fresh_array_1 i4)))
(=> (distinct i5 i1) (= (rd a i5) (rd fresh_array_1 i5)))
(=> (distinct i6 i1) (= (rd a i6) (rd fresh_array_1 i6)))
(=> (distinct i7 i1) (= (rd a i7) (rd fresh_array_1 i7)))
(= (rd fresh_array_0 i2) e2)
(=> (distinct i1 i2) (= (rd fresh_array_0 i1) (rd fresh_array_2 i1)))
(=> (distinct i2 i2) (= (rd fresh_array_0 i2) (rd fresh_array_2 i2)))
(=> (distinct i3 i2) (= (rd fresh_array_0 i3) (rd fresh_array_2 i3)))
(=> (distinct i4 i2) (= (rd fresh_array_0 i4) (rd fresh_array_2 i4)))
(=> (distinct i5 i2) (= (rd fresh_array_0 i5) (rd fresh_array_2 i5)))
(=> (distinct i6 i2) (= (rd fresh_array_0 i6) (rd fresh_array_2 i6)))
(=> (distinct i7 i2) (= (rd fresh_array_0 i7) (rd fresh_array_2 i7)))
(= (rd fresh_array_1 i2) e2)
(=> (distinct i1 i2) (= (rd fresh_array_1 i1) (rd fresh_array_3 i1)))
(=> (distinct i2 i2) (= (rd fresh_array_1 i2) (rd fresh_array_3 i2)))
(=> (distinct i3 i2) (= (rd fresh_array_1 i3) (rd fresh_array_3 i3)))
(=> (distinct i4 i2) (= (rd fresh_array_1 i4) (rd fresh_array_3 i4)))
(=> (distinct i5 i2) (= (rd fresh_array_1 i5) (rd fresh_array_3 i5)))
(=> (distinct i6 i2) (= (rd fresh_array_1 i6) (rd fresh_array_3 i6)))
(=> (distinct i7 i2) (= (rd fresh_array_1 i7) (rd fresh_array_3 i7)))
(= (rd fresh_array_2 i3) e3)
(=> (distinct i1 i3) (= (rd fresh_array_2 i1) (rd fresh_array_4 i1)))
(=> (distinct i2 i3) (= (rd fresh_array_2 i2) (rd fresh_array_4 i2)))
(=> (distinct i3 i3) (= (rd fresh_array_2 i3) (rd fresh_array_4 i3)))
(=> (distinct i4 i3) (= (rd fresh_array_2 i4) (rd fresh_array_4 i4)))
(=> (distinct i5 i3) (= (rd fresh_array_2 i5) (rd fresh_array_4 i5)))
(=> (distinct i6 i3) (= (rd fresh_array_2 i6) (rd fresh_array_4 i6)))
(=> (distinct i7 i3) (= (rd fresh_array_2 i7) (rd fresh_array_4 i7)))
(= (rd fresh_array_3 i3) e3)
(=> (distinct i1 i3) (= (rd fresh_array_3 i1) (rd b i1)))
(=> (distinct i2 i3) (= (rd fresh_array_3 i2) (rd b i2)))
(=> (distinct i3 i3) (= (rd fresh_array_3 i3) (rd b i3)))
(=> (distinct i4 i3) (= (rd fresh_array_3 i4) (rd b i4)))
(=> (distinct i5 i3) (= (rd fresh_array_3 i5) (rd b i5)))
(=> (distinct i6 i3) (= (rd fresh_array_3 i6) (rd b i6)))
(=> (distinct i7 i3) (= (rd fresh_array_3 i7) (rd b i7)))
(= (rd fresh_array_4 i4) e4)
(=> (distinct i1 i4) (= (rd fresh_array_4 i1) (rd fresh_array_5 i1)))
(=> (distinct i2 i4) (= (rd fresh_array_4 i2) (rd fresh_array_5 i2)))
(=> (distinct i3 i4) (= (rd fresh_array_4 i3) (rd fresh_array_5 i3)))
(=> (distinct i4 i4) (= (rd fresh_array_4 i4) (rd fresh_array_5 i4)))
(=> (distinct i5 i4) (= (rd fresh_array_4 i5) (rd fresh_array_5 i5)))
(=> (distinct i6 i4) (= (rd fresh_array_4 i6) (rd fresh_array_5 i6)))
(=> (distinct i7 i4) (= (rd fresh_array_4 i7) (rd fresh_array_5 i7)))
(= (rd fresh_array_5 i5) e5)
(=> (distinct i1 i5) (= (rd fresh_array_5 i1) (rd fresh_array_6 i1)))
(=> (distinct i2 i5) (= (rd fresh_array_5 i2) (rd fresh_array_6 i2)))
(=> (distinct i3 i5) (= (rd fresh_array_5 i3) (rd fresh_array_6 i3)))
(=> (distinct i4 i5) (= (rd fresh_array_5 i4) (rd fresh_array_6 i4)))
(=> (distinct i5 i5) (= (rd fresh_array_5 i5) (rd fresh_array_6 i5)))
(=> (distinct i6 i5) (= (rd fresh_array_5 i6) (rd fresh_array_6 i6)))
(=> (distinct i7 i5) (= (rd fresh_array_5 i7) (rd fresh_array_6 i7)))
(= (rd fresh_array_6 i6) e6)
(=> (distinct i1 i6) (= (rd fresh_array_6 i1) (rd fresh_array_7 i1)))
(=> (distinct i2 i6) (= (rd fresh_array_6 i2) (rd fresh_array_7 i2)))
(=> (distinct i3 i6) (= (rd fresh_array_6 i3) (rd fresh_array_7 i3)))
(=> (distinct i4 i6) (= (rd fresh_array_6 i4) (rd fresh_array_7 i4)))
(=> (distinct i5 i6) (= (rd fresh_array_6 i5) (rd fresh_array_7 i5)))
(=> (distinct i6 i6) (= (rd fresh_array_6 i6) (rd fresh_array_7 i6)))
(=> (distinct i7 i6) (= (rd fresh_array_6 i7) (rd fresh_array_7 i7)))
(= (rd fresh_array_7 i7) e7)
(=> (distinct i1 i7) (= (rd fresh_array_7 i1) (rd b i1)))
(=> (distinct i2 i7) (= (rd fresh_array_7 i2) (rd b i2)))
(=> (distinct i3 i7) (= (rd fresh_array_7 i3) (rd b i3)))
(=> (distinct i4 i7) (= (rd fresh_array_7 i4) (rd b i4)))
(=> (distinct i5 i7) (= (rd fresh_array_7 i5) (rd b i5)))
(=> (distinct i6 i7) (= (rd fresh_array_7 i6) (rd b i6)))
(=> (distinct i7 i7) (= (rd fresh_array_7 i7) (rd b i7)))
(=> (= (rd b fresh_index_8) (rd a fresh_index_8)) (= fresh_index_8 0))
(=> (> i1 fresh_index_8) (or (= (rd b i1) (rd a i1)) (= i1 fresh_index_8)))
(=> (> i2 fresh_index_8) (or (= (rd b i2) (rd a i2)) (= i2 fresh_index_8)))
(=> (> i3 fresh_index_8) (or (= (rd b i3) (rd a i3)) (= i3 fresh_index_8)))
(=> (> i4 fresh_index_8) (or (= (rd b i4) (rd a i4)) (= i4 fresh_index_8)))
(=> (> i5 fresh_index_8) (or (= (rd b i5) (rd a i5)) (= i5 fresh_index_8)))
(=> (> i6 fresh_index_8) (or (= (rd b i6) (rd a i6)) (= i6 fresh_index_8)))
(=> (> i7 fresh_index_8) (or (= (rd b i7) (rd a i7)) (= i7 fresh_index_8)))
(=> (> fresh_index_8 fresh_index_8)
    (or (= (rd b fresh_index_8) (rd a fresh_index_8))
        (= fresh_index_8 fresh_index_8)))
(=> (distinct fresh_index_8 i1)
    (= (rd a fresh_index_8) (rd fresh_array_0 fresh_index_8)))
(=> (distinct fresh_index_8 i1)
    (= (rd a fresh_index_8) (rd fresh_array_1 fresh_index_8)))
(=> (distinct fresh_index_8 i2)
    (= (rd fresh_array_0 fresh_index_8) (rd fresh_array_2 fresh_index_8)))
(=> (distinct fresh_index_8 i2)
    (= (rd fresh_array_1 fresh_index_8) (rd fresh_array_3 fresh_index_8)))
(=> (distinct fresh_index_8 i3)
    (= (rd fresh_array_2 fresh_index_8) (rd fresh_array_4 fresh_index_8)))
(=> (distinct fresh_index_8 i3)
    (= (rd fresh_array_3 fresh_index_8) (rd b fresh_index_8)))
(=> (distinct fresh_index_8 i4)
    (= (rd fresh_array_4 fresh_index_8) (rd fresh_array_5 fresh_index_8)))
(=> (distinct fresh_index_8 i5)
    (= (rd fresh_array_5 fresh_index_8) (rd fresh_array_6 fresh_index_8)))
(=> (distinct fresh_index_8 i6)
    (= (rd fresh_array_6 fresh_index_8) (rd fresh_array_7 fresh_index_8)))
(=> (distinct fresh_index_8 i7)
    (= (rd fresh_array_7 fresh_index_8) (rd b fresh_index_8)))
(=> (> fresh_index_8 fresh_index_8)
    (or (= (rd b fresh_index_8) (rd a fresh_index_8))))
(>= fresh_index_8 fresh_index_9)
(=> (> fresh_index_8 fresh_index_9)
    (distinct (rd b fresh_index_8) (rd a fresh_index_8)))
(=> (= fresh_index_8 fresh_index_9) (= fresh_index_8 0))
(=> (= (rd b fresh_index_9) (rd a fresh_index_9)) (= fresh_index_9 0))
(=> (> i1 fresh_index_9)
    (or (= (rd b i1) (rd a i1)) (= i1 fresh_index_8) (= i1 fresh_index_9)))
(=> (> i2 fresh_index_9)
    (or (= (rd b i2) (rd a i2)) (= i2 fresh_index_8) (= i2 fresh_index_9)))
(=> (> i3 fresh_index_9)
    (or (= (rd b i3) (rd a i3)) (= i3 fresh_index_8) (= i3 fresh_index_9)))
(=> (> i4 fresh_index_9)
    (or (= (rd b i4) (rd a i4)) (= i4 fresh_index_8) (= i4 fresh_index_9)))
(=> (> i5 fresh_index_9)
    (or (= (rd b i5) (rd a i5)) (= i5 fresh_index_8) (= i5 fresh_index_9)))
(=> (> i6 fresh_index_9)
    (or (= (rd b i6) (rd a i6)) (= i6 fresh_index_8) (= i6 fresh_index_9)))
(=> (> i7 fresh_index_9)
    (or (= (rd b i7) (rd a i7)) (= i7 fresh_index_8) (= i7 fresh_index_9)))
(=> (> fresh_index_8 fresh_index_9)
    (or (= (rd b fresh_index_8) (rd a fresh_index_8))
        (= fresh_index_8 fresh_index_8)
        (= fresh_index_8 fresh_index_9)))
(=> (> fresh_index_9 fresh_index_9)
    (or (= (rd b fresh_index_9) (rd a fresh_index_9))
        (= fresh_index_9 fresh_index_8)
        (= fresh_index_9 fresh_index_9)))
(=> (distinct fresh_index_9 i1)
    (= (rd a fresh_index_9) (rd fresh_array_0 fresh_index_9)))
(=> (distinct fresh_index_9 i1)
    (= (rd a fresh_index_9) (rd fresh_array_1 fresh_index_9)))
(=> (distinct fresh_index_9 i2)
    (= (rd fresh_array_0 fresh_index_9) (rd fresh_array_2 fresh_index_9)))
(=> (distinct fresh_index_9 i2)
    (= (rd fresh_array_1 fresh_index_9) (rd fresh_array_3 fresh_index_9)))
(=> (distinct fresh_index_9 i3)
    (= (rd fresh_array_2 fresh_index_9) (rd fresh_array_4 fresh_index_9)))
(=> (distinct fresh_index_9 i3)
    (= (rd fresh_array_3 fresh_index_9) (rd b fresh_index_9)))
(=> (distinct fresh_index_9 i4)
    (= (rd fresh_array_4 fresh_index_9) (rd fresh_array_5 fresh_index_9)))
(=> (distinct fresh_index_9 i5)
    (= (rd fresh_array_5 fresh_index_9) (rd fresh_array_6 fresh_index_9)))
(=> (distinct fresh_index_9 i6)
    (= (rd fresh_array_6 fresh_index_9) (rd fresh_array_7 fresh_index_9)))
(=> (distinct fresh_index_9 i7)
    (= (rd fresh_array_7 fresh_index_9) (rd b fresh_index_9)))
(=> (> fresh_index_9 fresh_index_8)
    (or (= (rd b fresh_index_9) (rd a fresh_index_9))))
(=> (> fresh_index_9 fresh_index_9)
    (or (= (rd b fresh_index_9) (rd a fresh_index_9))
        (= fresh_index_9 fresh_index_8)))
(>= fresh_index_9 fresh_index_10)
(=> (> fresh_index_9 fresh_index_10)
    (distinct (rd b fresh_index_9) (rd a fresh_index_9)))
(=> (= fresh_index_9 fresh_index_10) (= fresh_index_9 0))
(=> (= (rd b fresh_index_10) (rd a fresh_index_10)) (= fresh_index_10 0))
(=> (> i1 fresh_index_10)
    (or (= (rd b i1) (rd a i1))
        (= i1 fresh_index_8)
        (= i1 fresh_index_9)
        (= i1 fresh_index_10)))
(=> (> i2 fresh_index_10)
    (or (= (rd b i2) (rd a i2))
        (= i2 fresh_index_8)
        (= i2 fresh_index_9)
        (= i2 fresh_index_10)))
(=> (> i3 fresh_index_10)
    (or (= (rd b i3) (rd a i3))
        (= i3 fresh_index_8)
        (= i3 fresh_index_9)
        (= i3 fresh_index_10)))
(=> (> i4 fresh_index_10)
    (or (= (rd b i4) (rd a i4))
        (= i4 fresh_index_8)
        (= i4 fresh_index_9)
        (= i4 fresh_index_10)))
(=> (> i5 fresh_index_10)
    (or (= (rd b i5) (rd a i5))
        (= i5 fresh_index_8)
        (= i5 fresh_index_9)
        (= i5 fresh_index_10)))
(=> (> i6 fresh_index_10)
    (or (= (rd b i6) (rd a i6))
        (= i6 fresh_index_8)
        (= i6 fresh_index_9)
        (= i6 fresh_index_10)))
(=> (> i7 fresh_index_10)
    (or (= (rd b i7) (rd a i7))
        (= i7 fresh_index_8)
        (= i7 fresh_index_9)
        (= i7 fresh_index_10)))
(=> (> fresh_index_8 fresh_index_10)
    (or (= (rd b fresh_index_8) (rd a fresh_index_8))
        (= fresh_index_8 fresh_index_8)
        (= fresh_index_8 fresh_index_9)
        (= fresh_index_8 fresh_index_10)))
(=> (> fresh_index_9 fresh_index_10)
    (or (= (rd b fresh_index_9) (rd a fresh_index_9))
        (= fresh_index_9 fresh_index_8)
        (= fresh_index_9 fresh_index_9)
        (= fresh_index_9 fresh_index_10)))
(=> (> fresh_index_10 fresh_index_10)
    (or (= (rd b fresh_index_10) (rd a fresh_index_10))
        (= fresh_index_10 fresh_index_8)
        (= fresh_index_10 fresh_index_9)
        (= fresh_index_10 fresh_index_10)))
(=> (distinct fresh_index_10 i1)
    (= (rd a fresh_index_10) (rd fresh_array_0 fresh_index_10)))
(=> (distinct fresh_index_10 i1)
    (= (rd a fresh_index_10) (rd fresh_array_1 fresh_index_10)))
(=> (distinct fresh_index_10 i2)
    (= (rd fresh_array_0 fresh_index_10) (rd fresh_array_2 fresh_index_10)))
(=> (distinct fresh_index_10 i2)
    (= (rd fresh_array_1 fresh_index_10) (rd fresh_array_3 fresh_index_10)))
(=> (distinct fresh_index_10 i3)
    (= (rd fresh_array_2 fresh_index_10) (rd fresh_array_4 fresh_index_10)))
(=> (distinct fresh_index_10 i3)
    (= (rd fresh_array_3 fresh_index_10) (rd b fresh_index_10)))
(=> (distinct fresh_index_10 i4)
    (= (rd fresh_array_4 fresh_index_10) (rd fresh_array_5 fresh_index_10)))
(=> (distinct fresh_index_10 i5)
    (= (rd fresh_array_5 fresh_index_10) (rd fresh_array_6 fresh_index_10)))
(=> (distinct fresh_index_10 i6)
    (= (rd fresh_array_6 fresh_index_10) (rd fresh_array_7 fresh_index_10)))
(=> (distinct fresh_index_10 i7)
    (= (rd fresh_array_7 fresh_index_10) (rd b fresh_index_10)))
(=> (> fresh_index_10 fresh_index_8)
    (or (= (rd b fresh_index_10) (rd a fresh_index_10))))
(=> (> fresh_index_10 fresh_index_9)
    (or (= (rd b fresh_index_10) (rd a fresh_index_10))
        (= fresh_index_10 fresh_index_8)))
(=> (> fresh_index_10 fresh_index_10)
    (or (= (rd b fresh_index_10) (rd a fresh_index_10))
        (= fresh_index_10 fresh_index_8)
        (= fresh_index_10 fresh_index_9)))
(>= fresh_index_10 fresh_index_11)
(=> (> fresh_index_10 fresh_index_11)
    (distinct (rd b fresh_index_10) (rd a fresh_index_10)))
(=> (= fresh_index_10 fresh_index_11) (= fresh_index_10 0))
(=> (= (rd b fresh_index_11) (rd a fresh_index_11)) (= fresh_index_11 0))
(=> (> i1 fresh_index_11)
    (or (= (rd b i1) (rd a i1))
        (= i1 fresh_index_8)
        (= i1 fresh_index_9)
        (= i1 fresh_index_10)
        (= i1 fresh_index_11)))
(=> (> i2 fresh_index_11)
    (or (= (rd b i2) (rd a i2))
        (= i2 fresh_index_8)
        (= i2 fresh_index_9)
        (= i2 fresh_index_10)
        (= i2 fresh_index_11)))
(=> (> i3 fresh_index_11)
    (or (= (rd b i3) (rd a i3))
        (= i3 fresh_index_8)
        (= i3 fresh_index_9)
        (= i3 fresh_index_10)
        (= i3 fresh_index_11)))
(=> (> i4 fresh_index_11)
    (or (= (rd b i4) (rd a i4))
        (= i4 fresh_index_8)
        (= i4 fresh_index_9)
        (= i4 fresh_index_10)
        (= i4 fresh_index_11)))
(=> (> i5 fresh_index_11)
    (or (= (rd b i5) (rd a i5))
        (= i5 fresh_index_8)
        (= i5 fresh_index_9)
        (= i5 fresh_index_10)
        (= i5 fresh_index_11)))
(=> (> i6 fresh_index_11)
    (or (= (rd b i6) (rd a i6))
        (= i6 fresh_index_8)
        (= i6 fresh_index_9)
        (= i6 fresh_index_10)
        (= i6 fresh_index_11)))
(=> (> i7 fresh_index_11)
    (or (= (rd b i7) (rd a i7))
        (= i7 fresh_index_8)
        (= i7 fresh_index_9)
        (= i7 fresh_index_10)
        (= i7 fresh_index_11)))
(=> (> fresh_index_8 fresh_index_11)
    (or (= (rd b fresh_index_8) (rd a fresh_index_8))
        (= fresh_index_8 fresh_index_8)
        (= fresh_index_8 fresh_index_9)
        (= fresh_index_8 fresh_index_10)
        (= fresh_index_8 fresh_index_11)))
(=> (> fresh_index_9 fresh_index_11)
    (or (= (rd b fresh_index_9) (rd a fresh_index_9))
        (= fresh_index_9 fresh_index_8)
        (= fresh_index_9 fresh_index_9)
        (= fresh_index_9 fresh_index_10)
        (= fresh_index_9 fresh_index_11)))
(=> (> fresh_index_10 fresh_index_11)
    (or (= (rd b fresh_index_10) (rd a fresh_index_10))
        (= fresh_index_10 fresh_index_8)
        (= fresh_index_10 fresh_index_9)
        (= fresh_index_10 fresh_index_10)
        (= fresh_index_10 fresh_index_11)))
(=> (> fresh_index_11 fresh_index_11)
    (or (= (rd b fresh_index_11) (rd a fresh_index_11))
        (= fresh_index_11 fresh_index_8)
        (= fresh_index_11 fresh_index_9)
        (= fresh_index_11 fresh_index_10)
        (= fresh_index_11 fresh_index_11)))
(=> (distinct fresh_index_11 i1)
    (= (rd a fresh_index_11) (rd fresh_array_0 fresh_index_11)))
(=> (distinct fresh_index_11 i1)
    (= (rd a fresh_index_11) (rd fresh_array_1 fresh_index_11)))
(=> (distinct fresh_index_11 i2)
    (= (rd fresh_array_0 fresh_index_11) (rd fresh_array_2 fresh_index_11)))
(=> (distinct fresh_index_11 i2)
    (= (rd fresh_array_1 fresh_index_11) (rd fresh_array_3 fresh_index_11)))
(=> (distinct fresh_index_11 i3)
    (= (rd fresh_array_2 fresh_index_11) (rd fresh_array_4 fresh_index_11)))
(=> (distinct fresh_index_11 i3)
    (= (rd fresh_array_3 fresh_index_11) (rd b fresh_index_11)))
(=> (distinct fresh_index_11 i4)
    (= (rd fresh_array_4 fresh_index_11) (rd fresh_array_5 fresh_index_11)))
(=> (distinct fresh_index_11 i5)
    (= (rd fresh_array_5 fresh_index_11) (rd fresh_array_6 fresh_index_11)))
(=> (distinct fresh_index_11 i6)
    (= (rd fresh_array_6 fresh_index_11) (rd fresh_array_7 fresh_index_11)))
(=> (distinct fresh_index_11 i7)
    (= (rd fresh_array_7 fresh_index_11) (rd b fresh_index_11)))
(=> (> fresh_index_11 fresh_index_8)
    (or (= (rd b fresh_index_11) (rd a fresh_index_11))))
(=> (> fresh_index_11 fresh_index_9)
    (or (= (rd b fresh_index_11) (rd a fresh_index_11))
        (= fresh_index_11 fresh_index_8)))
(=> (> fresh_index_11 fresh_index_10)
    (or (= (rd b fresh_index_11) (rd a fresh_index_11))
        (= fresh_index_11 fresh_index_8)
        (= fresh_index_11 fresh_index_9)))
(=> (> fresh_index_11 fresh_index_11)
    (or (= (rd b fresh_index_11) (rd a fresh_index_11))
        (= fresh_index_11 fresh_index_8)
        (= fresh_index_11 fresh_index_9)
        (= fresh_index_11 fresh_index_10)))
(>= i1 0)
(>= i2 0)
(>= i3 0)
(>= i4 0)
(>= i5 0)
(>= i6 0)
(>= i7 0)
(>= fresh_index_8 0)
(>= fresh_index_9 0)
(>= fresh_index_10 0)
(>= fresh_index_11 0)
) :interpolation-group part_a))
(assert (! (and 
(distinct (rd a j) (rd b j))
(= false (p1 j))
(= false (p2 j))
(= false (p3 j))
(= false (p4 j))
(= false (p5 j))
(= false (p6 j))
(= false (p7 j))
(= false (p8 j))
(=> (= (rd b fresh_index_8) (rd a fresh_index_8)) (= fresh_index_8 0))
(=> (> j fresh_index_8) (or (= (rd b j) (rd a j)) (= j fresh_index_8)))
(=> (> fresh_index_8 fresh_index_8)
    (or (= (rd b fresh_index_8) (rd a fresh_index_8))
        (= fresh_index_8 fresh_index_8)))
(=> (> fresh_index_8 fresh_index_8)
    (or (= (rd b fresh_index_8) (rd a fresh_index_8))))
(>= fresh_index_8 fresh_index_9)
(=> (> fresh_index_8 fresh_index_9)
    (distinct (rd b fresh_index_8) (rd a fresh_index_8)))
(=> (= fresh_index_8 fresh_index_9) (= fresh_index_8 0))
(=> (= (rd b fresh_index_9) (rd a fresh_index_9)) (= fresh_index_9 0))
(=> (> j fresh_index_9)
    (or (= (rd b j) (rd a j)) (= j fresh_index_8) (= j fresh_index_9)))
(=> (> fresh_index_8 fresh_index_9)
    (or (= (rd b fresh_index_8) (rd a fresh_index_8))
        (= fresh_index_8 fresh_index_8)
        (= fresh_index_8 fresh_index_9)))
(=> (> fresh_index_9 fresh_index_9)
    (or (= (rd b fresh_index_9) (rd a fresh_index_9))
        (= fresh_index_9 fresh_index_8)
        (= fresh_index_9 fresh_index_9)))
(=> (> fresh_index_9 fresh_index_8)
    (or (= (rd b fresh_index_9) (rd a fresh_index_9))))
(=> (> fresh_index_9 fresh_index_9)
    (or (= (rd b fresh_index_9) (rd a fresh_index_9))
        (= fresh_index_9 fresh_index_8)))
(>= fresh_index_9 fresh_index_10)
(=> (> fresh_index_9 fresh_index_10)
    (distinct (rd b fresh_index_9) (rd a fresh_index_9)))
(=> (= fresh_index_9 fresh_index_10) (= fresh_index_9 0))
(=> (= (rd b fresh_index_10) (rd a fresh_index_10)) (= fresh_index_10 0))
(=> (> j fresh_index_10)
    (or (= (rd b j) (rd a j))
        (= j fresh_index_8)
        (= j fresh_index_9)
        (= j fresh_index_10)))
(=> (> fresh_index_8 fresh_index_10)
    (or (= (rd b fresh_index_8) (rd a fresh_index_8))
        (= fresh_index_8 fresh_index_8)
        (= fresh_index_8 fresh_index_9)
        (= fresh_index_8 fresh_index_10)))
(=> (> fresh_index_9 fresh_index_10)
    (or (= (rd b fresh_index_9) (rd a fresh_index_9))
        (= fresh_index_9 fresh_index_8)
        (= fresh_index_9 fresh_index_9)
        (= fresh_index_9 fresh_index_10)))
(=> (> fresh_index_10 fresh_index_10)
    (or (= (rd b fresh_index_10) (rd a fresh_index_10))
        (= fresh_index_10 fresh_index_8)
        (= fresh_index_10 fresh_index_9)
        (= fresh_index_10 fresh_index_10)))
(=> (> fresh_index_10 fresh_index_8)
    (or (= (rd b fresh_index_10) (rd a fresh_index_10))))
(=> (> fresh_index_10 fresh_index_9)
    (or (= (rd b fresh_index_10) (rd a fresh_index_10))
        (= fresh_index_10 fresh_index_8)))
(=> (> fresh_index_10 fresh_index_10)
    (or (= (rd b fresh_index_10) (rd a fresh_index_10))
        (= fresh_index_10 fresh_index_8)
        (= fresh_index_10 fresh_index_9)))
(>= fresh_index_10 fresh_index_11)
(=> (> fresh_index_10 fresh_index_11)
    (distinct (rd b fresh_index_10) (rd a fresh_index_10)))
(=> (= fresh_index_10 fresh_index_11) (= fresh_index_10 0))
(=> (= (rd b fresh_index_11) (rd a fresh_index_11)) (= fresh_index_11 0))
(=> (> j fresh_index_11)
    (or (= (rd b j) (rd a j))
        (= j fresh_index_8)
        (= j fresh_index_9)
        (= j fresh_index_10)
        (= j fresh_index_11)))
(=> (> fresh_index_8 fresh_index_11)
    (or (= (rd b fresh_index_8) (rd a fresh_index_8))
        (= fresh_index_8 fresh_index_8)
        (= fresh_index_8 fresh_index_9)
        (= fresh_index_8 fresh_index_10)
        (= fresh_index_8 fresh_index_11)))
(=> (> fresh_index_9 fresh_index_11)
    (or (= (rd b fresh_index_9) (rd a fresh_index_9))
        (= fresh_index_9 fresh_index_8)
        (= fresh_index_9 fresh_index_9)
        (= fresh_index_9 fresh_index_10)
        (= fresh_index_9 fresh_index_11)))
(=> (> fresh_index_10 fresh_index_11)
    (or (= (rd b fresh_index_10) (rd a fresh_index_10))
        (= fresh_index_10 fresh_index_8)
        (= fresh_index_10 fresh_index_9)
        (= fresh_index_10 fresh_index_10)
        (= fresh_index_10 fresh_index_11)))
(=> (> fresh_index_11 fresh_index_11)
    (or (= (rd b fresh_index_11) (rd a fresh_index_11))
        (= fresh_index_11 fresh_index_8)
        (= fresh_index_11 fresh_index_9)
        (= fresh_index_11 fresh_index_10)
        (= fresh_index_11 fresh_index_11)))
(=> (> fresh_index_11 fresh_index_8)
    (or (= (rd b fresh_index_11) (rd a fresh_index_11))))
(=> (> fresh_index_11 fresh_index_9)
    (or (= (rd b fresh_index_11) (rd a fresh_index_11))
        (= fresh_index_11 fresh_index_8)))
(=> (> fresh_index_11 fresh_index_10)
    (or (= (rd b fresh_index_11) (rd a fresh_index_11))
        (= fresh_index_11 fresh_index_8)
        (= fresh_index_11 fresh_index_9)))
(=> (> fresh_index_11 fresh_index_11)
    (or (= (rd b fresh_index_11) (rd a fresh_index_11))
        (= fresh_index_11 fresh_index_8)
        (= fresh_index_11 fresh_index_9)
        (= fresh_index_11 fresh_index_10)))
(>= j 0)
(>= fresh_index_8 0)
(>= fresh_index_9 0)
(>= fresh_index_10 0)
(>= fresh_index_11 0)
) :interpolation-group part_b))
(check-sat)
(get-interpolant (part_a))
(exit)
